;; sequence(s): A41628
;; terms: 18 73 2646 10657 386298 1555849 56396862 227143297 8233555554 33161365513 1202042714022 4841332221601 175490002691658 706801342988233 25620338350268046 103188154744060417 3740393909136443058 15064763791289832649 546071890395570418422
;; small program: loop2(loop((2 + y) * x, 2, x) + y, x, x, 2 + (2 + 2), 1) * loop(1, x mod 2, 1 + 2)
;; fast program: loop2(((2 * (2 + (2 + 2))) * x) + y, x, x, 2 + (2 + 2), 1) * loop(1, x mod 2, 1 + 2)
(set-logic UFNIA)
(define-fun modf ((a Int) (b Int)) Int (ite (< 0 b) (mod a b) (- (mod (- a) (- b)))))
(declare-fun f1 (Int Int) Int)
(declare-fun g1 () Int)
(declare-fun h1 (Int) Int)
(declare-fun u1 (Int Int) Int)
(declare-fun v1 (Int) Int)
(declare-fun f0 (Int Int) Int)
(declare-fun g0 (Int) Int)
(declare-fun h0 (Int) Int)
(declare-fun i0 () Int)
(declare-fun j0 () Int)
(declare-fun u0 (Int Int Int) Int)
(declare-fun v0 (Int Int Int) Int)
(declare-fun w0 (Int) Int)
(declare-fun f2 () Int)
(declare-fun g2 (Int) Int)
(declare-fun h2 () Int)
(declare-fun u2 (Int Int) Int)
(declare-fun v2 (Int) Int)
(declare-fun small (Int) Int)
(declare-fun f3 (Int Int) Int)
(declare-fun g3 (Int) Int)
(declare-fun h3 (Int) Int)
(declare-fun i3 () Int)
(declare-fun j3 () Int)
(declare-fun u3 (Int Int Int) Int)
(declare-fun v3 (Int Int Int) Int)
(declare-fun w3 (Int) Int)
(declare-fun f4 () Int)
(declare-fun g4 (Int) Int)
(declare-fun h4 () Int)
(declare-fun u4 (Int Int) Int)
(declare-fun v4 (Int) Int)
(declare-fun fast (Int) Int)
(assert (forall ((x Int) (y Int)) (= (f1 x y) (* (+ 2 y) x))))
(assert (= g1 2))
(assert (forall ((x Int)) (= (h1 x) x)))
(assert (forall ((x Int) (y Int)) (= (u1 x y) (ite (<= x 0) y (f1 (u1 (- x 1) y) x)))))
(assert (forall ((x Int)) (= (v1 x) (u1 g1 (h1 x)))))
(assert (forall ((x Int) (y Int)) (= (f0 x y) (+ (v1 x) y))))
(assert (forall ((x Int)) (= (g0 x) x)))
(assert (forall ((x Int)) (= (h0 x) x)))
(assert (= i0 (+ 2 (+ 2 2))))
(assert (= j0 1))
(assert (forall ((x Int) (y Int) (z Int)) (= (u0 x y z) (ite (<= x 0) y (f0 (u0 (- x 1) y z) (v0 (- x 1) y z))))))
(assert (forall ((x Int) (y Int) (z Int)) (= (v0 x y z) (ite (<= x 0) z (g0 (u0 (- x 1) y z))))))
(assert (forall ((x Int)) (= (w0 x) (u0 (h0 x) i0 j0))))
(assert (= f2 1))
(assert (forall ((x Int)) (= (g2 x) (modf x 2))))
(assert (= h2 (+ 1 2)))
(assert (forall ((x Int) (y Int)) (= (u2 x y) (ite (<= x 0) y f2))))
(assert (forall ((x Int)) (= (v2 x) (u2 (g2 x) h2))))
(assert (forall ((x Int)) (= (small x) (* (w0 x) (v2 x)))))
(assert (forall ((x Int) (y Int)) (= (f3 x y) (+ (* (* 2 (+ 2 (+ 2 2))) x) y))))
(assert (forall ((x Int)) (= (g3 x) x)))
(assert (forall ((x Int)) (= (h3 x) x)))
(assert (= i3 (+ 2 (+ 2 2))))
(assert (= j3 1))
(assert (forall ((x Int) (y Int) (z Int)) (= (u3 x y z) (ite (<= x 0) y (f3 (u3 (- x 1) y z) (v3 (- x 1) y z))))))
(assert (forall ((x Int) (y Int) (z Int)) (= (v3 x y z) (ite (<= x 0) z (g3 (u3 (- x 1) y z))))))
(assert (forall ((x Int)) (= (w3 x) (u3 (h3 x) i3 j3))))
(assert (= f4 1))
(assert (forall ((x Int)) (= (g4 x) (modf x 2))))
(assert (= h4 (+ 1 2)))
(assert (forall ((x Int) (y Int)) (= (u4 x y) (ite (<= x 0) y f4))))
(assert (forall ((x Int)) (= (v4 x) (u4 (g4 x) h4))))
(assert (forall ((x Int)) (= (fast x) (* (w3 x) (v4 x)))))
(assert (exists ((c Int)) (and (>= c 0) (not (= (small c) (fast c))))))
(check-sat)
